<instance format="XCSP3" type="COP">
  <variables>
    <array id="x" size="[49]"> 0..48 </array>
  </variables>
  <constraints>
    <group>
      <intension> ne(%0,%1) </intension>
      <args> x[0] x[1] </args>
      <args> x[0] x[2] </args>
      <args> x[0] x[3] </args>
      <args> x[0] x[4] </args>
      <args> x[0] x[5] </args>
      <args> x[0] x[6] </args>
      <args> x[0] x[7] </args>
      <args> x[0] x[8] </args>
      <args> x[0] x[14] </args>
      <args> x[0] x[16] </args>
      <args> x[0] x[21] </args>
      <args> x[0] x[24] </args>
      <args> x[0] x[28] </args>
      <args> x[0] x[32] </args>
      <args> x[0] x[35] </args>
      <args> x[0] x[40] </args>
      <args> x[0] x[42] </args>
      <args> x[0] x[48] </args>
      <args> x[1] x[2] </args>
      <args> x[1] x[3] </args>
      <args> x[1] x[4] </args>
      <args> x[1] x[5] </args>
      <args> x[1] x[6] </args>
      <args> x[1] x[7] </args>
      <args> x[1] x[8] </args>
      <args> x[1] x[9] </args>
      <args> x[1] x[15] </args>
      <args> x[1] x[17] </args>
      <args> x[1] x[22] </args>
      <args> x[1] x[25] </args>
      <args> x[1] x[29] </args>
      <args> x[1] x[33] </args>
      <args> x[1] x[36] </args>
      <args> x[1] x[41] </args>
      <args> x[1] x[43] </args>
      <args> x[2] x[3] </args>
      <args> x[2] x[4] </args>
      <args> x[2] x[5] </args>
      <args> x[2] x[6] </args>
      <args> x[2] x[8] </args>
      <args> x[2] x[9] </args>
      <args> x[2] x[10] </args>
      <args> x[2] x[14] </args>
      <args> x[2] x[16] </args>
      <args> x[2] x[18] </args>
      <args> x[2] x[23] </args>
      <args> x[2] x[26] </args>
      <args> x[2] x[30] </args>
      <args> x[2] x[34] </args>
      <args> x[2] x[37] </args>
      <args> x[2] x[44] </args>
      <args> x[3] x[4] </args>
      <args> x[3] x[5] </args>
      <args> x[3] x[6] </args>
      <args> x[3] x[9] </args>
      <args> x[3] x[10] </args>
      <args> x[3] x[11] </args>
      <args> x[3] x[15] </args>
      <args> x[3] x[17] </args>
      <args> x[3] x[19] </args>
      <args> x[3] x[21] </args>
      <args> x[3] x[24] </args>
      <args> x[3] x[27] </args>
      <args> x[3] x[31] </args>
      <args> x[3] x[38] </args>
      <args> x[3] x[45] </args>
      <args> x[4] x[5] </args>
      <args> x[4] x[6] </args>
      <args> x[4] x[10] </args>
      <args> x[4] x[11] </args>
      <args> x[4] x[12] </args>
      <args> x[4] x[16] </args>
      <args> x[4] x[18] </args>
      <args> x[4] x[20] </args>
      <args> x[4] x[22] </args>
      <args> x[4] x[25] </args>
      <args> x[4] x[28] </args>
      <args> x[4] x[32] </args>
      <args> x[4] x[39] </args>
      <args> x[4] x[46] </args>
      <args> x[5] x[6] </args>
      <args> x[5] x[11] </args>
      <args> x[5] x[12] </args>
      <args> x[5] x[13] </args>
      <args> x[5] x[17] </args>
      <args> x[5] x[19] </args>
      <args> x[5] x[23] </args>
      <args> x[5] x[26] </args>
      <args> x[5] x[29] </args>
      <args> x[5] x[33] </args>
      <args> x[5] x[35] </args>
      <args> x[5] x[40] </args>
      <args> x[5] x[47] </args>
      <args> x[6] x[12] </args>
      <args> x[6] x[13] </args>
      <args> x[6] x[18] </args>
      <args> x[6] x[20] </args>
      <args> x[6] x[24] </args>
      <args> x[6] x[27] </args>
      <args> x[6] x[30] </args>
      <args> x[6] x[34] </args>
      <args> x[6] x[36] </args>
      <args> x[6] x[41] </args>
      <args> x[6] x[42] </args>
      <args> x[6] x[48] </args>
      <args> x[7] x[8] </args>
      <args> x[7] x[9] </args>
      <args> x[7] x[10] </args>
      <args> x[7] x[11] </args>
      <args> x[7] x[12] </args>
      <args> x[7] x[13] </args>
      <args> x[7] x[14] </args>
      <args> x[7] x[15] </args>
      <args> x[7] x[21] </args>
      <args> x[7] x[23] </args>
      <args> x[7] x[28] </args>
      <args> x[7] x[31] </args>
      <args> x[7] x[35] </args>
      <args> x[7] x[39] </args>
      <args> x[7] x[42] </args>
      <args> x[7] x[47] </args>
      <args> x[8] x[9] </args>
      <args> x[8] x[10] </args>
      <args> x[8] x[11] </args>
      <args> x[8] x[12] </args>
      <args> x[8] x[13] </args>
      <args> x[8] x[14] </args>
      <args> x[8] x[15] </args>
      <args> x[8] x[16] </args>
      <args> x[8] x[22] </args>
      <args> x[8] x[24] </args>
      <args> x[8] x[29] </args>
      <args> x[8] x[32] </args>
      <args> x[8] x[36] </args>
      <args> x[8] x[40] </args>
      <args> x[8] x[43] </args>
      <args> x[8] x[48] </args>
      <args> x[9] x[10] </args>
      <args> x[9] x[11] </args>
      <args> x[9] x[12] </args>
      <args> x[9] x[13] </args>
      <args> x[9] x[15] </args>
      <args> x[9] x[16] </args>
      <args> x[9] x[17] </args>
      <args> x[9] x[21] </args>
      <args> x[9] x[23] </args>
      <args> x[9] x[25] </args>
      <args> x[9] x[30] </args>
      <args> x[9] x[33] </args>
      <args> x[9] x[37] </args>
      <args> x[9] x[41] </args>
      <args> x[9] x[44] </args>
      <args> x[10] x[11] </args>
      <args> x[10] x[12] </args>
      <args> x[10] x[13] </args>
      <args> x[10] x[16] </args>
      <args> x[10] x[17] </args>
      <args> x[10] x[18] </args>
      <args> x[10] x[22] </args>
      <args> x[10] x[24] </args>
      <args> x[10] x[26] </args>
      <args> x[10] x[28] </args>
      <args> x[10] x[31] </args>
      <args> x[10] x[34] </args>
      <args> x[10] x[38] </args>
      <args> x[10] x[45] </args>
      <args> x[11] x[12] </args>
      <args> x[11] x[13] </args>
      <args> x[11] x[17] </args>
      <args> x[11] x[18] </args>
      <args> x[11] x[19] </args>
      <args> x[11] x[23] </args>
      <args> x[11] x[25] </args>
      <args> x[11] x[27] </args>
      <args> x[11] x[29] </args>
      <args> x[11] x[32] </args>
      <args> x[11] x[35] </args>
      <args> x[11] x[39] </args>
      <args> x[11] x[46] </args>
      <args> x[12] x[13] </args>
      <args> x[12] x[18] </args>
      <args> x[12] x[19] </args>
      <args> x[12] x[20] </args>
      <args> x[12] x[24] </args>
      <args> x[12] x[26] </args>
      <args> x[12] x[30] </args>
      <args> x[12] x[33] </args>
      <args> x[12] x[36] </args>
      <args> x[12] x[40] </args>
      <args> x[12] x[42] </args>
      <args> x[12] x[47] </args>
      <args> x[13] x[19] </args>
      <args> x[13] x[20] </args>
      <args> x[13] x[25] </args>
      <args> x[13] x[27] </args>
      <args> x[13] x[31] </args>
      <args> x[13] x[34] </args>
      <args> x[13] x[37] </args>
      <args> x[13] x[41] </args>
      <args> x[13] x[43] </args>
      <args> x[13] x[48] </args>
      <args> x[14] x[15] </args>
      <args> x[14] x[16] </args>
      <args> x[14] x[17] </args>
      <args> x[14] x[18] </args>
      <args> x[14] x[19] </args>
      <args> x[14] x[20] </args>
      <args> x[14] x[21] </args>
      <args> x[14] x[22] </args>
      <args> x[14] x[28] </args>
      <args> x[14] x[30] </args>
      <args> x[14] x[35] </args>
      <args> x[14] x[38] </args>
      <args> x[14] x[42] </args>
      <args> x[14] x[46] </args>
      <args> x[15] x[16] </args>
      <args> x[15] x[17] </args>
      <args> x[15] x[18] </args>
      <args> x[15] x[19] </args>
      <args> x[15] x[20] </args>
      <args> x[15] x[21] </args>
      <args> x[15] x[22] </args>
      <args> x[15] x[23] </args>
      <args> x[15] x[29] </args>
      <args> x[15] x[31] </args>
      <args> x[15] x[36] </args>
      <args> x[15] x[39] </args>
      <args> x[15] x[43] </args>
      <args> x[15] x[47] </args>
      <args> x[16] x[17] </args>
      <args> x[16] x[18] </args>
      <args> x[16] x[19] </args>
      <args> x[16] x[20] </args>
      <args> x[16] x[22] </args>
      <args> x[16] x[23] </args>
      <args> x[16] x[24] </args>
      <args> x[16] x[28] </args>
      <args> x[16] x[30] </args>
      <args> x[16] x[32] </args>
      <args> x[16] x[37] </args>
      <args> x[16] x[40] </args>
      <args> x[16] x[44] </args>
      <args> x[16] x[48] </args>
      <args> x[17] x[18] </args>
      <args> x[17] x[19] </args>
      <args> x[17] x[20] </args>
      <args> x[17] x[23] </args>
      <args> x[17] x[24] </args>
      <args> x[17] x[25] </args>
      <args> x[17] x[29] </args>
      <args> x[17] x[31] </args>
      <args> x[17] x[33] </args>
      <args> x[17] x[35] </args>
      <args> x[17] x[38] </args>
      <args> x[17] x[41] </args>
      <args> x[17] x[45] </args>
      <args> x[18] x[19] </args>
      <args> x[18] x[20] </args>
      <args> x[18] x[24] </args>
      <args> x[18] x[25] </args>
      <args> x[18] x[26] </args>
      <args> x[18] x[30] </args>
      <args> x[18] x[32] </args>
      <args> x[18] x[34] </args>
      <args> x[18] x[36] </args>
      <args> x[18] x[39] </args>
      <args> x[18] x[42] </args>
      <args> x[18] x[46] </args>
      <args> x[19] x[20] </args>
      <args> x[19] x[25] </args>
      <args> x[19] x[26] </args>
      <args> x[19] x[27] </args>
      <args> x[19] x[31] </args>
      <args> x[19] x[33] </args>
      <args> x[19] x[37] </args>
      <args> x[19] x[40] </args>
      <args> x[19] x[43] </args>
      <args> x[19] x[47] </args>
      <args> x[20] x[26] </args>
      <args> x[20] x[27] </args>
      <args> x[20] x[32] </args>
      <args> x[20] x[34] </args>
      <args> x[20] x[38] </args>
      <args> x[20] x[41] </args>
      <args> x[20] x[44] </args>
      <args> x[20] x[48] </args>
      <args> x[21] x[22] </args>
      <args> x[21] x[23] </args>
      <args> x[21] x[24] </args>
      <args> x[21] x[25] </args>
      <args> x[21] x[26] </args>
      <args> x[21] x[27] </args>
      <args> x[21] x[28] </args>
      <args> x[21] x[29] </args>
      <args> x[21] x[35] </args>
      <args> x[21] x[37] </args>
      <args> x[21] x[42] </args>
      <args> x[21] x[45] </args>
      <args> x[22] x[23] </args>
      <args> x[22] x[24] </args>
      <args> x[22] x[25] </args>
      <args> x[22] x[26] </args>
      <args> x[22] x[27] </args>
      <args> x[22] x[28] </args>
      <args> x[22] x[29] </args>
      <args> x[22] x[30] </args>
      <args> x[22] x[36] </args>
      <args> x[22] x[38] </args>
      <args> x[22] x[43] </args>
      <args> x[22] x[46] </args>
      <args> x[23] x[24] </args>
      <args> x[23] x[25] </args>
      <args> x[23] x[26] </args>
      <args> x[23] x[27] </args>
      <args> x[23] x[29] </args>
      <args> x[23] x[30] </args>
      <args> x[23] x[31] </args>
      <args> x[23] x[35] </args>
      <args> x[23] x[37] </args>
      <args> x[23] x[39] </args>
      <args> x[23] x[44] </args>
      <args> x[23] x[47] </args>
      <args> x[24] x[25] </args>
      <args> x[24] x[26] </args>
      <args> x[24] x[27] </args>
      <args> x[24] x[30] </args>
      <args> x[24] x[31] </args>
      <args> x[24] x[32] </args>
      <args> x[24] x[36] </args>
      <args> x[24] x[38] </args>
      <args> x[24] x[40] </args>
      <args> x[24] x[42] </args>
      <args> x[24] x[45] </args>
      <args> x[24] x[48] </args>
      <args> x[25] x[26] </args>
      <args> x[25] x[27] </args>
      <args> x[25] x[31] </args>
      <args> x[25] x[32] </args>
      <args> x[25] x[33] </args>
      <args> x[25] x[37] </args>
      <args> x[25] x[39] </args>
      <args> x[25] x[41] </args>
      <args> x[25] x[43] </args>
      <args> x[25] x[46] </args>
      <args> x[26] x[27] </args>
      <args> x[26] x[32] </args>
      <args> x[26] x[33] </args>
      <args> x[26] x[34] </args>
      <args> x[26] x[38] </args>
      <args> x[26] x[40] </args>
      <args> x[26] x[44] </args>
      <args> x[26] x[47] </args>
      <args> x[27] x[33] </args>
      <args> x[27] x[34] </args>
      <args> x[27] x[39] </args>
      <args> x[27] x[41] </args>
      <args> x[27] x[45] </args>
      <args> x[27] x[48] </args>
      <args> x[28] x[29] </args>
      <args> x[28] x[30] </args>
      <args> x[28] x[31] </args>
      <args> x[28] x[32] </args>
      <args> x[28] x[33] </args>
      <args> x[28] x[34] </args>
      <args> x[28] x[35] </args>
      <args> x[28] x[36] </args>
      <args> x[28] x[42] </args>
      <args> x[28] x[44] </args>
      <args> x[29] x[30] </args>
      <args> x[29] x[31] </args>
      <args> x[29] x[32] </args>
      <args> x[29] x[33] </args>
      <args> x[29] x[34] </args>
      <args> x[29] x[35] </args>
      <args> x[29] x[36] </args>
      <args> x[29] x[37] </args>
      <args> x[29] x[43] </args>
      <args> x[29] x[45] </args>
      <args> x[30] x[31] </args>
      <args> x[30] x[32] </args>
      <args> x[30] x[33] </args>
      <args> x[30] x[34] </args>
      <args> x[30] x[36] </args>
      <args> x[30] x[37] </args>
      <args> x[30] x[38] </args>
      <args> x[30] x[42] </args>
      <args> x[30] x[44] </args>
      <args> x[30] x[46] </args>
      <args> x[31] x[32] </args>
      <args> x[31] x[33] </args>
      <args> x[31] x[34] </args>
      <args> x[31] x[37] </args>
      <args> x[31] x[38] </args>
      <args> x[31] x[39] </args>
      <args> x[31] x[43] </args>
      <args> x[31] x[45] </args>
      <args> x[31] x[47] </args>
      <args> x[32] x[33] </args>
      <args> x[32] x[34] </args>
      <args> x[32] x[38] </args>
      <args> x[32] x[39] </args>
      <args> x[32] x[40] </args>
      <args> x[32] x[44] </args>
      <args> x[32] x[46] </args>
      <args> x[32] x[48] </args>
      <args> x[33] x[34] </args>
      <args> x[33] x[39] </args>
      <args> x[33] x[40] </args>
      <args> x[33] x[41] </args>
      <args> x[33] x[45] </args>
      <args> x[33] x[47] </args>
      <args> x[34] x[40] </args>
      <args> x[34] x[41] </args>
      <args> x[34] x[46] </args>
      <args> x[34] x[48] </args>
      <args> x[35] x[36] </args>
      <args> x[35] x[37] </args>
      <args> x[35] x[38] </args>
      <args> x[35] x[39] </args>
      <args> x[35] x[40] </args>
      <args> x[35] x[41] </args>
      <args> x[35] x[42] </args>
      <args> x[35] x[43] </args>
      <args> x[36] x[37] </args>
      <args> x[36] x[38] </args>
      <args> x[36] x[39] </args>
      <args> x[36] x[40] </args>
      <args> x[36] x[41] </args>
      <args> x[36] x[42] </args>
      <args> x[36] x[43] </args>
      <args> x[36] x[44] </args>
      <args> x[37] x[38] </args>
      <args> x[37] x[39] </args>
      <args> x[37] x[40] </args>
      <args> x[37] x[41] </args>
      <args> x[37] x[43] </args>
      <args> x[37] x[44] </args>
      <args> x[37] x[45] </args>
      <args> x[38] x[39] </args>
      <args> x[38] x[40] </args>
      <args> x[38] x[41] </args>
      <args> x[38] x[44] </args>
      <args> x[38] x[45] </args>
      <args> x[38] x[46] </args>
      <args> x[39] x[40] </args>
      <args> x[39] x[41] </args>
      <args> x[39] x[45] </args>
      <args> x[39] x[46] </args>
      <args> x[39] x[47] </args>
      <args> x[40] x[41] </args>
      <args> x[40] x[46] </args>
      <args> x[40] x[47] </args>
      <args> x[40] x[48] </args>
      <args> x[41] x[47] </args>
      <args> x[41] x[48] </args>
      <args> x[42] x[43] </args>
      <args> x[42] x[44] </args>
      <args> x[42] x[45] </args>
      <args> x[42] x[46] </args>
      <args> x[42] x[47] </args>
      <args> x[42] x[48] </args>
      <args> x[43] x[44] </args>
      <args> x[43] x[45] </args>
      <args> x[43] x[46] </args>
      <args> x[43] x[47] </args>
      <args> x[43] x[48] </args>
      <args> x[44] x[45] </args>
      <args> x[44] x[46] </args>
      <args> x[44] x[47] </args>
      <args> x[44] x[48] </args>
      <args> x[45] x[46] </args>
      <args> x[45] x[47] </args>
      <args> x[45] x[48] </args>
      <args> x[46] x[47] </args>
      <args> x[46] x[48] </args>
      <args> x[47] x[48] </args>
    </group>
  </constraints>
  <objectives>
    <minimize type="maximum"> x[] </minimize>
  </objectives>
</instance>
